54614
51, 40, 43, 3, 6, 28, 55, 26, 54, 23, 21, 29, 22, 10, 16, 39, 46, 36, 15, 52, 42, 33, 1, 27, 31, 25, 11, 45, 2, 14, 9, 12, 18, 4, 30, 47, 34, 53, 17, 48, 49, 19, 44, 8, 38, 35, 5, 37, 7, 20, 50, 24, 32, 41, 13
